\ This file has been generated by DOcplex
\ ENCODING=ISO-8859-1
\Problem name: random_problem.lp

Minimize
 obj: - 844 x0 - 422 x1 - 211 x2 - 916 x3 - 458 x4 - 229 x5 - 804 x6 - 402 x7
      - 201 x8 + 412 x9 + 206 x10 + 103 x11 + 180 x12 + 90 x13 + 45 x14
      - 156 x15 - 78 x16 - 39 x17 - 228 x18 - 114 x19 - 57 x20 - 624 x21
      - 312 x22 - 156 x23 + [ 4608 x0^2 + 4608 x0*x1 + 2304 x0*x2 - 512 x0*x3
      - 256 x0*x4 - 128 x0*x5 + 2304 x0*x6 + 1152 x0*x7 + 576 x0*x8 + 8064 x0*x9
      + 4032 x0*x10 + 2016 x0*x11 + 2816 x0*x12 + 1408 x0*x13 + 704 x0*x14
      + 6144 x0*x15 + 3072 x0*x16 + 1536 x0*x17 + 2432 x0*x18 + 1216 x0*x19
      + 608 x0*x20 + 256 x0*x21 + 128 x0*x22 + 64 x0*x23 + 1152 x1^2
      + 1152 x1*x2 - 256 x1*x3 - 128 x1*x4 - 64 x1*x5 + 1152 x1*x6 + 576 x1*x7
      + 288 x1*x8 + 4032 x1*x9 + 2016 x1*x10 + 1008 x1*x11 + 1408 x1*x12
      + 704 x1*x13 + 352 x1*x14 + 3072 x1*x15 + 1536 x1*x16 + 768 x1*x17
      + 1216 x1*x18 + 608 x1*x19 + 304 x1*x20 + 128 x1*x21 + 64 x1*x22
      + 32 x1*x23 + 288 x2^2 - 128 x2*x3 - 64 x2*x4 - 32 x2*x5 + 576 x2*x6
      + 288 x2*x7 + 144 x2*x8 + 2016 x2*x9 + 1008 x2*x10 + 504 x2*x11
      + 704 x2*x12 + 352 x2*x13 + 176 x2*x14 + 1536 x2*x15 + 768 x2*x16
      + 384 x2*x17 + 608 x2*x18 + 304 x2*x19 + 152 x2*x20 + 64 x2*x21
      + 32 x2*x22 + 16 x2*x23 + 6528 x3^2 + 6528 x3*x4 + 3264 x3*x5 + 3072 x3*x6
      + 1536 x3*x7 + 768 x3*x8 + 1920 x3*x9 + 960 x3*x10 + 480 x3*x11
      + 1152 x3*x12 + 576 x3*x13 + 288 x3*x14 + 3712 x3*x15 + 1856 x3*x16
      + 928 x3*x17 - 2432 x3*x18 - 1216 x3*x19 - 608 x3*x20 - 1280 x3*x21
      - 640 x3*x22 - 320 x3*x23 + 1632 x4^2 + 1632 x4*x5 + 1536 x4*x6
      + 768 x4*x7 + 384 x4*x8 + 960 x4*x9 + 480 x4*x10 + 240 x4*x11 + 576 x4*x12
      + 288 x4*x13 + 144 x4*x14 + 1856 x4*x15 + 928 x4*x16 + 464 x4*x17
      - 1216 x4*x18 - 608 x4*x19 - 304 x4*x20 - 640 x4*x21 - 320 x4*x22
      - 160 x4*x23 + 408 x5^2 + 768 x5*x6 + 384 x5*x7 + 192 x5*x8 + 480 x5*x9
      + 240 x5*x10 + 120 x5*x11 + 288 x5*x12 + 144 x5*x13 + 72 x5*x14
      + 928 x5*x15 + 464 x5*x16 + 232 x5*x17 - 608 x5*x18 - 304 x5*x19
      - 152 x5*x20 - 320 x5*x21 - 160 x5*x22 - 80 x5*x23 + 3392 x6^2
      + 3392 x6*x7 + 1696 x6*x8 + 6528 x6*x9 + 3264 x6*x10 + 1632 x6*x11
      + 4608 x6*x12 + 2304 x6*x13 + 1152 x6*x14 + 3968 x6*x15 + 1984 x6*x16
      + 992 x6*x17 + 256 x6*x18 + 128 x6*x19 + 64 x6*x20 - 768 x6*x21
      - 384 x6*x22 - 192 x6*x23 + 848 x7^2 + 848 x7*x8 + 3264 x7*x9
      + 1632 x7*x10 + 816 x7*x11 + 2304 x7*x12 + 1152 x7*x13 + 576 x7*x14
      + 1984 x7*x15 + 992 x7*x16 + 496 x7*x17 + 128 x7*x18 + 64 x7*x19
      + 32 x7*x20 - 384 x7*x21 - 192 x7*x22 - 96 x7*x23 + 212 x8^2 + 1632 x8*x9
      + 816 x8*x10 + 408 x8*x11 + 1152 x8*x12 + 576 x8*x13 + 288 x8*x14
      + 992 x8*x15 + 496 x8*x16 + 248 x8*x17 + 64 x8*x18 + 32 x8*x19 + 16 x8*x20
      - 192 x8*x21 - 96 x8*x22 - 48 x8*x23 + 7872 x9^2 + 7872 x9*x10
      + 3936 x9*x11 + 6656 x9*x12 + 3328 x9*x13 + 1664 x9*x14 + 6912 x9*x15
      + 3456 x9*x16 + 1728 x9*x17 + 1280 x9*x18 + 640 x9*x19 + 320 x9*x20
      + 1664 x9*x21 + 832 x9*x22 + 416 x9*x23 + 1968 x10^2 + 1968 x10*x11
      + 3328 x10*x12 + 1664 x10*x13 + 832 x10*x14 + 3456 x10*x15 + 1728 x10*x16
      + 864 x10*x17 + 640 x10*x18 + 320 x10*x19 + 160 x10*x20 + 832 x10*x21
      + 416 x10*x22 + 208 x10*x23 + 492 x11^2 + 1664 x11*x12 + 832 x11*x13
      + 416 x11*x14 + 1728 x11*x15 + 864 x11*x16 + 432 x11*x17 + 320 x11*x18
      + 160 x11*x19 + 80 x11*x20 + 416 x11*x21 + 208 x11*x22 + 104 x11*x23
      + 5312 x12^2 + 5312 x12*x13 + 2656 x12*x14 - 768 x12*x15 - 384 x12*x16
      - 192 x12*x17 + 1536 x12*x18 + 768 x12*x19 + 384 x12*x20 + 256 x12*x21
      + 128 x12*x22 + 64 x12*x23 + 1328 x13^2 + 1328 x13*x14 - 384 x13*x15
      - 192 x13*x16 - 96 x13*x17 + 768 x13*x18 + 384 x13*x19 + 192 x13*x20
      + 128 x13*x21 + 64 x13*x22 + 32 x13*x23 + 332 x14^2 - 192 x14*x15
      - 96 x14*x16 - 48 x14*x17 + 384 x14*x18 + 192 x14*x19 + 96 x14*x20
      + 64 x14*x21 + 32 x14*x22 + 16 x14*x23 + 7808 x15^2 + 7808 x15*x16
      + 3904 x15*x17 + 2688 x15*x18 + 1344 x15*x19 + 672 x15*x20 - 1152 x15*x21
      - 576 x15*x22 - 288 x15*x23 + 1952 x16^2 + 1952 x16*x17 + 1344 x16*x18
      + 672 x16*x19 + 336 x16*x20 - 576 x16*x21 - 288 x16*x22 - 144 x16*x23
      + 488 x17^2 + 672 x17*x18 + 336 x17*x19 + 168 x17*x20 - 288 x17*x21
      - 144 x17*x22 - 72 x17*x23 + 2624 x18^2 + 2624 x18*x19 + 1312 x18*x20
      - 1920 x18*x21 - 960 x18*x22 - 480 x18*x23 + 656 x19^2 + 656 x19*x20
      - 960 x19*x21 - 480 x19*x22 - 240 x19*x23 + 164 x20^2 - 480 x20*x21
      - 240 x20*x22 - 120 x20*x23 + 9344 x21^2 + 9344 x21*x22 + 4672 x21*x23
      + 2336 x22^2 + 2336 x22*x23 + 584 x23^2 ]/2
Subject To
 c0: 4 x0 + 2 x1 + x2 + 4 x3 + 2 x4 + x5 + 4 x6 + 2 x7 + x8 + 4 x9 + 2 x10 + x11
     + 4 x12 + 2 x13 + x14 + 4 x15 + 2 x16 + x17 + 4 x18 + 2 x19 + x20 + 4 x21
     + 2 x22 + x23 = 7

Bounds
 0 <= x0 <= 1
 0 <= x1 <= 1
 0 <= x2 <= 1
 0 <= x3 <= 1
 0 <= x4 <= 1
 0 <= x5 <= 1
 0 <= x6 <= 1
 0 <= x7 <= 1
 0 <= x8 <= 1
 0 <= x9 <= 1
 0 <= x10 <= 1
 0 <= x11 <= 1
 0 <= x12 <= 1
 0 <= x13 <= 1
 0 <= x14 <= 1
 0 <= x15 <= 1
 0 <= x16 <= 1
 0 <= x17 <= 1
 0 <= x18 <= 1
 0 <= x19 <= 1
 0 <= x20 <= 1
 0 <= x21 <= 1
 0 <= x22 <= 1
 0 <= x23 <= 1

Binaries
 x0 x1 x2 x3 x4 x5 x6 x7 x8 x9 x10 x11 x12 x13 x14 x15 x16 x17 x18 x19 x20 x21
 x22 x23
End
